experiment/data/lkh-res/Vrp-Set-X-n303/Vrp-Set-X-n303-lkh/0.lkh1.vrp
NAME : 0
COMMENT : CVRP Instance
TYPE : CVRP
DIMENSION : 303
EDGE_WEIGHT_TYPE : EUC_2D
CAPACITY : 794
NODE_COORD_SECTION
1	50000	50000
2	20500	63800
3	89300	16100
4	19100	77500
5	44400	87100
6	22500	44500
7	36800	54300
8	12000	27000
9	61200	90200
10	4500	32300
11	70700	18200
12	12500	72000
13	44200	38800
14	7900	75900
15	90400	7600
16	37900	84900
17	21300	59500
18	16400	68600
19	40400	94700
20	33100	61500
21	84200	15600
22	27200	29700
23	95700	22700
24	27400	48100
25	28700	54400
26	15200	40300
27	87300	14600
28	26700	41500
29	18800	72700
30	59400	74200
31	19800	42900
32	81000	79700
33	38300	60200
34	45900	78600
35	5000	18300
36	39500	83600
37	60000	86600
38	19200	74400
39	1200	70500
40	86900	9900
41	23300	81100
42	23500	63800
43	42300	90400
44	22000	61900
45	23600	71300
46	96000	14100
47	12800	32100
48	16000	23000
49	20000	65000
50	10400	54400
51	37500	63800
52	54000	72600
53	63500	79000
54	51200	59700
55	64300	51700
56	32700	75000
57	19800	41200
58	37500	55800
59	12300	25900
60	36500	85900
61	54500	70000
62	24200	43100
63	14000	41200
64	31600	41300
65	14500	76400
66	89200	24600
67	33100	82800
68	23100	34200
69	67600	81000
70	21100	37800
71	19700	53800
72	80800	11300
73	12900	65500
74	8400	71400
75	41600	78400
76	15100	24300
77	27500	44200
78	4600	35500
79	18200	74600
80	15800	71700
81	19800	64800
82	13700	76300
83	20600	87200
84	3000	30100
85	97900	21400
86	38400	85500
87	21200	79400
88	3500	77900
89	10800	64000
90	18600	93000
91	62300	97700
92	23100	79600
93	40200	93200
94	16600	23700
95	34100	80300
96	55900	85100
97	88300	14300
98	52400	90900
99	38700	46300
100	39500	32700
101	38200	78700
102	34100	78400
103	18000	53000
104	8100	26100
105	37900	70000
106	72100	33300
107	31200	75600
108	42400	57300
109	59600	87800
110	27300	51400
111	28100	41700
112	12500	52800
113	46400	89300
114	14000	41300
115	25600	25000
116	20600	38400
117	20400	56300
118	20200	15900
119	34700	42000
120	28300	52000
121	21400	49400
122	85400	14200
123	50200	83900
124	59900	88900
125	48500	89800
126	33900	7300
127	39600	95900
128	19200	53300
129	23400	70200
130	81100	10100
131	84000	27200
132	26600	34600
133	86700	21100
134	18500	43600
135	6100	37400
136	84300	18800
137	15600	79500
138	38700	88900
139	72400	95200
140	62200	1600
141	23500	89400
142	32700	99100
143	86700	17200
144	32900	49600
145	93000	11500
146	72800	95000
147	37100	31700
148	41600	57500
149	40800	74400
150	9800	43400
151	46800	99000
152	23900	77500
153	23100	74800
154	25100	39800
155	31100	72500
156	91300	13500
157	92800	39900
158	44400	59600
159	33700	51900
160	29400	98100
161	62500	82400
162	15300	53000
163	12400	34200
164	61500	88100
165	53400	82600
166	45400	88800
167	63900	78900
168	4800	35300
169	20000	70400
170	5000	48300
171	26900	61000
172	47700	95300
173	5400	30000
174	34600	58800
175	61700	83200
176	86700	6300
177	30400	24000
178	12900	67500
179	29300	54700
180	11000	59700
181	86800	12600
182	19000	76000
183	89400	16200
184	20900	69600
185	40000	49500
186	28300	65700
187	53600	99100
188	64900	87200
189	19800	37000
190	82400	20200
191	27500	88900
192	90400	16900
193	51100	60000
194	22400	44100
195	67400	94900
196	62700	95200
197	700	21300
198	15500	21800
199	59300	80200
200	81700	21100
201	21200	35100
202	84300	19100
203	61600	90200
204	23000	56100
205	45900	55400
206	58500	59500
207	20400	61400
208	69800	97000
209	42500	53900
210	43000	85000
211	49800	75800
212	43700	62200
213	10700	48300
214	11900	76400
215	26500	61500
216	54700	48100
217	32400	76200
218	72300	74500
219	16300	92800
220	30800	51300
221	33900	59900
222	31400	81400
223	31600	59800
224	18300	15900
225	32500	34800
226	16300	48000
227	59500	72700
228	30300	86600
229	35000	70000
230	92000	8200
231	10500	23800
232	11100	1800
233	43700	48200
234	8800	30000
235	46400	92900
236	54400	84600
237	20100	23300
238	35300	72900
239	30200	40400
240	70800	85500
241	73900	84300
242	19800	25000
243	5500	14300
244	25700	41000
245	2600	41100
246	83200	23400
247	20700	34400
248	21200	75700
249	27700	45300
250	27400	47200
251	27200	82800
252	87500	10100
253	43400	97500
254	51000	97500
255	70900	93200
256	64700	94300
257	34900	42800
258	31700	86600
259	39100	39300
260	61200	81500
261	21700	66600
262	22900	74000
263	63000	91800
264	12500	70400
265	54500	89800
266	18400	75700
267	49200	93000
268	98500	20100
269	44800	99800
270	11700	78400
271	35900	49000
272	29200	71500
273	36500	53100
274	50300	79500
275	2100	22000
276	22500	87200
277	38700	55100
278	89500	12000
279	47600	86800
280	28100	58600
281	60900	94400
282	86800	16400
283	14800	74800
284	16800	46300
285	36400	55000
286	84400	16300
287	46500	61400
288	21400	63700
289	18900	58200
290	9400	18600
291	86300	19000
292	67600	80000
293	17500	68600
294	39300	40000
295	17200	61400
296	32000	50400
297	3500	20600
298	18200	67100
299	35600	59900
300	8800	21500
301	60800	77500
302	48100	72100
303	44900	75100
DEMAND_SECTION
1	0
2	20
3	14
4	85
5	33
6	51
7	78
8	51
9	85
10	74
11	4
12	13
13	2
14	33
15	16
16	31
17	16
18	18
19	3
20	66
21	42
22	65
23	15
24	3
25	38
26	81
27	82
28	83
29	86
30	1
31	59
32	69
33	1
34	58
35	98
36	37
37	65
38	92
39	44
40	86
41	83
42	68
43	52
44	82
45	66
46	34
47	33
48	18
49	39
50	97
51	29
52	6
53	74
54	20
55	2
56	89
57	48
58	53
59	57
60	80
61	26
62	85
63	89
64	29
65	68
66	15
67	51
68	9
69	63
70	62
71	49
72	28
73	84
74	82
75	65
76	77
77	74
78	27
79	100
80	82
81	54
82	21
83	43
84	4
85	53
86	55
87	73
88	46
89	68
90	22
91	69
92	93
93	44
94	63
95	64
96	81
97	87
98	44
99	12
100	78
101	91
102	63
103	84
104	7
105	2
106	68
107	85
108	77
109	93
110	16
111	6
112	52
113	79
114	43
115	87
116	40
117	47
118	74
119	19
120	3
121	12
122	40
123	57
124	100
125	4
126	37
127	74
128	51
129	71
130	99
131	23
132	24
133	16
134	100
135	39
136	49
137	52
138	81
139	52
140	60
141	87
142	2
143	42
144	56
145	28
146	17
147	1
148	91
149	20
150	79
151	30
152	88
153	98
154	60
155	63
156	79
157	73
158	11
159	10
160	70
161	39
162	31
163	25
164	24
165	4
166	74
167	4
168	84
169	52
170	72
171	8
172	5
173	22
174	89
175	100
176	21
177	17
178	96
179	25
180	35
181	38
182	73
183	98
184	29
185	40
186	36
187	28
188	9
189	16
190	88
191	62
192	64
193	4
194	95
195	57
196	57
197	19
198	90
199	72
200	39
201	16
202	96
203	92
204	89
205	64
206	81
207	70
208	76
209	62
210	33
211	100
212	50
213	67
214	61
215	13
216	55
217	55
218	21
219	91
220	67
221	99
222	71
223	22
224	62
225	82
226	43
227	61
228	99
229	28
230	50
231	32
232	42
233	59
234	5
235	45
236	90
237	78
238	81
239	42
240	49
241	78
242	81
243	68
244	15
245	73
246	44
247	65
248	92
249	57
250	67
251	94
252	31
253	87
254	63
255	79
256	91
257	90
258	29
259	77
260	31
261	97
262	57
263	74
264	22
265	99
266	52
267	7
268	87
269	31
270	91
271	7
272	68
273	81
274	93
275	67
276	7
277	20
278	26
279	45
280	71
281	62
282	29
283	77
284	81
285	45
286	67
287	24
288	81
289	42
290	6
291	45
292	29
293	90
294	15
295	90
296	6
297	49
298	91
299	20
300	58
301	87
302	15
303	55
DEPOT_SECTION
1
-1
EOF
