experiment/data/lkh-res/Vrp-Set-X-n303/Vrp-Set-X-n303-lkh/0.lkh1.tour
NAME : 0.2200277.tour
COMMENT : Length = 2200277
COMMENT : Found by LKH-3 [Keld Helsgaun] Tue Apr  9 06:05:07 2024
TYPE : TOUR
DIMENSION : 323
TOUR_SECTION
1
45
248
4
182
266
79
38
29
129
186
299
315
33
262
153
152
87
92
41
251
222
102
105
212
318
51
229
238
56
217
107
155
272
20
221
174
277
314
257
119
64
239
28
62
194
6
77
249
250
144
185
308
281
91
196
256
195
208
139
146
255
240
241
32
218
316
13
100
147
177
118
224
232
243
35
197
275
297
290
300
231
104
234
47
163
201
68
132
320
199
37
109
124
164
9
203
263
188
69
292
206
317
259
225
22
115
126
140
176
15
230
145
46
268
85
23
157
55
322
210
93
19
127
142
160
90
219
83
276
141
191
228
258
67
95
158
311
159
220
120
204
117
71
128
103
226
284
134
31
57
233
304
111
244
154
70
116
189
247
8
59
76
198
48
94
237
242
294
310
302
274
123
279
113
125
267
235
172
253
269
151
254
187
98
265
52
61
307
106
246
133
291
143
282
27
97
278
156
3
183
192
66
131
216
323
18
264
12
74
39
88
14
214
270
137
65
82
283
80
169
184
309
296
110
162
112
50
180
89
73
178
293
298
261
171
223
312
11
72
130
40
252
181
122
21
286
136
202
190
200
321
271
24
121
213
170
245
84
173
10
168
78
135
150
114
63
26
99
313
287
149
75
101
36
86
16
60
138
43
166
5
34
303
305
205
108
148
58
285
7
209
306
54
193
211
165
236
96
175
161
260
53
167
301
30
227
319
273
179
25
17
289
295
207
44
2
81
49
288
42
215
280
-1
EOF
